c
p cnf 13 38
-6 -13 0
-11 5 0
13 1 0
-6 -10 0
1 -11 0
-4 -12 0
-1 9 0
-6 -12 0
-13 2 0
12 3 0
4 10 0
-7 -5 0
-10 -6 0
8 7 0
3 1 0
-10 -9 0
-1 5 0
2 -11 0
2 5 0
-1 11 0
8 -5 0
-10 -7 0
7 -1 0
9 -5 0
10 -1 0
7 -3 0
-2 9 0
-7 -9 0
3 -4 0
11 12 0
2 -6 0
5 -3 0
-7 -2 0
-11 6 0
1 10 0
12 8 0
3 -9 0
-4 -9 0
